10J3M/DAT/10J3MNNX-14.dat
10 3
18.0926 4.2535
23.7306 4.8714
26.273 5.1257
23.9609 4.895
19.6585 4.4338
29.074 5.392
30.6317 5.5346
28.8335 5.3697
24.0325 4.9023
20.6476 4.544
49.322