10J3M/SOL/10J3MNNX-14.sol
solution status: optimal solution found
objective value:                     82.0803333333333
x#1#1                               0.393478362727831 	(obj:0)
x#1#3                               0.606521637272168 	(obj:0)
x#2#1                                               1 	(obj:0)
x#3#3                                               1 	(obj:0)
x#4#1                                               1 	(obj:0)
x#5#1                                               1 	(obj:0)
x#6#2                                               1 	(obj:0)
x#7#2                               0.725205902907293 	(obj:0)
x#7#3                               0.274794097092707 	(obj:0)
x#8#2                                               1 	(obj:0)
x#9#1                                               1 	(obj:0)
x#10#3                                              1 	(obj:0)
z                                    82.0803333333333 	(obj:1)
